(set-info :smt-lib-version 2.6)
(set-logic QF_NIA)
(set-info :source |
Generated by: Cristina Borralleras, Daniel Larraz, Albert Oliveras, Enric Rodriguez-Carbonell, Albert Rubio
Generated on: 2017-04-27
Generator: VeryMax
Application: Termination proving
Target solver: barcelogic
|)
(set-info :license "https://creativecommons.org/licenses/by/4.0/")
(set-info :category "industrial")
(set-info :status unsat)
(declare-fun Nl5arg11 () Int)
(declare-fun Nl5arg21 () Int)
(declare-fun Nl5arg31 () Int)
(declare-fun Nl5arg41 () Int)
(declare-fun lam0n0 () Int)
(declare-fun lam0n1 () Int)
(declare-fun lam0n2 () Int)
(declare-fun lam0n3 () Int)
(declare-fun lam0n4 () Int)
(declare-fun lam0n5 () Int)
(declare-fun lam0n6 () Int)
(declare-fun lam0n7 () Int)
(declare-fun lam0n8 () Int)
(declare-fun lam0n9 () Int)
(declare-fun lam0n10 () Int)
(declare-fun lam0n11 () Int)
(declare-fun lam0n12 () Int)
(declare-fun lam0n13 () Int)
(declare-fun lam0n14 () Int)
(declare-fun lam0n15 () Int)
(declare-fun Nl5CT1 () Int)
(declare-fun lam1n0 () Int)
(declare-fun lam1n1 () Int)
(declare-fun lam1n2 () Int)
(declare-fun lam1n3 () Int)
(declare-fun lam1n4 () Int)
(declare-fun lam1n5 () Int)
(declare-fun lam1n6 () Int)
(declare-fun lam1n7 () Int)
(declare-fun lam1n8 () Int)
(declare-fun lam1n9 () Int)
(declare-fun lam1n10 () Int)
(declare-fun lam1n11 () Int)
(declare-fun lam1n12 () Int)
(declare-fun lam1n13 () Int)
(declare-fun lam1n14 () Int)
(declare-fun lam1n15 () Int)
(declare-fun lam2n0 () Int)
(declare-fun lam2n1 () Int)
(declare-fun lam2n2 () Int)
(declare-fun lam2n3 () Int)
(declare-fun lam2n4 () Int)
(declare-fun lam2n5 () Int)
(declare-fun lam2n6 () Int)
(declare-fun lam2n7 () Int)
(declare-fun lam2n8 () Int)
(declare-fun lam2n9 () Int)
(declare-fun lam2n10 () Int)
(declare-fun lam2n11 () Int)
(declare-fun lam2n12 () Int)
(declare-fun lam2n13 () Int)
(declare-fun lam2n14 () Int)
(declare-fun lam3n0 () Int)
(declare-fun lam3n1 () Int)
(declare-fun lam3n2 () Int)
(declare-fun lam3n3 () Int)
(declare-fun lam3n4 () Int)
(declare-fun lam3n5 () Int)
(declare-fun lam3n6 () Int)
(declare-fun lam3n7 () Int)
(declare-fun lam3n8 () Int)
(declare-fun lam3n9 () Int)
(declare-fun lam3n10 () Int)
(declare-fun lam3n11 () Int)
(declare-fun lam3n12 () Int)
(declare-fun lam3n13 () Int)
(declare-fun lam3n14 () Int)
(declare-fun lam4n0 () Int)
(declare-fun lam4n1 () Int)
(declare-fun lam4n2 () Int)
(declare-fun lam4n3 () Int)
(declare-fun lam4n4 () Int)
(declare-fun lam4n5 () Int)
(declare-fun lam4n6 () Int)
(declare-fun lam4n7 () Int)
(declare-fun lam4n8 () Int)
(declare-fun lam4n9 () Int)
(declare-fun lam4n10 () Int)
(declare-fun lam4n11 () Int)
(declare-fun lam4n12 () Int)
(declare-fun lam4n13 () Int)
(declare-fun lam4n14 () Int)
(declare-fun lam4n15 () Int)
(declare-fun lam4n16 () Int)
(declare-fun lam4n17 () Int)
(declare-fun lam4n18 () Int)
(declare-fun lam4n19 () Int)
(declare-fun lam4n20 () Int)
(declare-fun lam4n21 () Int)
(declare-fun lam4n22 () Int)
(declare-fun lam4n23 () Int)
(declare-fun lam5n0 () Int)
(declare-fun lam5n1 () Int)
(declare-fun lam5n2 () Int)
(declare-fun lam5n3 () Int)
(declare-fun lam5n4 () Int)
(declare-fun lam5n5 () Int)
(declare-fun lam5n6 () Int)
(declare-fun lam5n7 () Int)
(declare-fun lam5n8 () Int)
(declare-fun lam5n9 () Int)
(declare-fun lam5n10 () Int)
(declare-fun lam5n11 () Int)
(declare-fun lam5n12 () Int)
(declare-fun lam5n13 () Int)
(declare-fun lam5n14 () Int)
(declare-fun lam5n15 () Int)
(declare-fun lam5n16 () Int)
(declare-fun lam5n17 () Int)
(declare-fun lam5n18 () Int)
(declare-fun lam5n19 () Int)
(declare-fun lam5n20 () Int)
(declare-fun lam5n21 () Int)
(declare-fun lam5n22 () Int)
(declare-fun lam6n0 () Int)
(declare-fun lam6n1 () Int)
(declare-fun lam6n2 () Int)
(declare-fun lam6n3 () Int)
(declare-fun lam6n4 () Int)
(declare-fun lam6n5 () Int)
(declare-fun lam6n6 () Int)
(declare-fun lam6n7 () Int)
(declare-fun lam6n8 () Int)
(declare-fun lam6n9 () Int)
(declare-fun lam6n10 () Int)
(declare-fun lam6n11 () Int)
(declare-fun lam6n12 () Int)
(declare-fun lam6n13 () Int)
(declare-fun lam6n14 () Int)
(declare-fun lam6n15 () Int)
(declare-fun lam6n16 () Int)
(declare-fun lam6n17 () Int)
(declare-fun lam6n18 () Int)
(declare-fun lam6n19 () Int)
(declare-fun lam6n20 () Int)
(declare-fun lam6n21 () Int)
(declare-fun lam6n22 () Int)
(declare-fun lam6n23 () Int)
(declare-fun lam7n0 () Int)
(declare-fun lam7n1 () Int)
(declare-fun lam7n2 () Int)
(declare-fun lam7n3 () Int)
(declare-fun lam7n4 () Int)
(declare-fun lam7n5 () Int)
(declare-fun lam7n6 () Int)
(declare-fun lam7n7 () Int)
(declare-fun lam7n8 () Int)
(declare-fun lam7n9 () Int)
(declare-fun lam7n10 () Int)
(declare-fun lam7n11 () Int)
(declare-fun lam7n12 () Int)
(declare-fun lam7n13 () Int)
(declare-fun lam7n14 () Int)
(declare-fun lam7n15 () Int)
(declare-fun lam7n16 () Int)
(declare-fun lam7n17 () Int)
(declare-fun lam7n18 () Int)
(declare-fun lam7n19 () Int)
(declare-fun lam7n20 () Int)
(declare-fun lam7n21 () Int)
(declare-fun lam7n22 () Int)
(declare-fun undef2 () Int)
(declare-fun undef12 () Int)
(declare-fun undef13 () Int)
(declare-fun undef14 () Int)
(declare-fun undef41 () Int)
(declare-fun undef38 () Int)
(declare-fun undef53 () Int)
(declare-fun undef1 () Int)
(declare-fun undef6 () Int)
(declare-fun undef39 () Int)
(declare-fun undef40 () Int)
(declare-fun undef16 () Int)
(declare-fun undef54 () Int)
(declare-fun undef17 () Int)
(declare-fun undef18 () Int)
(declare-fun undef19 () Int)
(declare-fun undef22 () Int)
(declare-fun undef21 () Int)
(declare-fun undef8 () Int)
(declare-fun undef7 () Int)
(declare-fun lam11n0 () Int)
(declare-fun lam11n1 () Int)
(declare-fun lam11n2 () Int)
(declare-fun lam11n3 () Int)
(declare-fun lam11n4 () Int)
(declare-fun lam11n5 () Int)
(declare-fun lam11n6 () Int)
(declare-fun lam11n7 () Int)
(declare-fun lam11n8 () Int)
(declare-fun lam11n9 () Int)
(declare-fun lam11n10 () Int)
(declare-fun lam11n11 () Int)
(declare-fun lam11n12 () Int)
(declare-fun lam11n13 () Int)
(declare-fun lam11n14 () Int)
(declare-fun lam11n15 () Int)
(declare-fun RFN1_CT () Int)
(declare-fun RFN1_arg1 () Int)
(declare-fun RFN1_arg2 () Int)
(declare-fun RFN1_arg3 () Int)
(declare-fun RFN1_arg4 () Int)
(declare-fun lam9n0 () Int)
(declare-fun lam9n1 () Int)
(declare-fun lam9n2 () Int)
(declare-fun lam9n3 () Int)
(declare-fun lam9n4 () Int)
(declare-fun lam9n5 () Int)
(declare-fun lam9n6 () Int)
(declare-fun lam9n7 () Int)
(declare-fun lam9n8 () Int)
(declare-fun lam9n9 () Int)
(declare-fun lam9n10 () Int)
(declare-fun lam9n11 () Int)
(declare-fun lam9n12 () Int)
(declare-fun lam9n13 () Int)
(declare-fun lam9n14 () Int)
(declare-fun lam9n15 () Int)
(declare-fun lam10n0 () Int)
(declare-fun lam10n1 () Int)
(declare-fun lam10n2 () Int)
(declare-fun lam10n3 () Int)
(declare-fun lam10n4 () Int)
(declare-fun lam10n5 () Int)
(declare-fun lam10n6 () Int)
(declare-fun lam10n7 () Int)
(declare-fun lam10n8 () Int)
(declare-fun lam10n9 () Int)
(declare-fun lam10n10 () Int)
(declare-fun lam10n11 () Int)
(declare-fun lam10n12 () Int)
(declare-fun lam10n13 () Int)
(declare-fun lam10n14 () Int)
(declare-fun lam10n15 () Int)
(declare-fun lam8n0 () Int)
(declare-fun lam8n1 () Int)
(declare-fun lam8n2 () Int)
(declare-fun lam8n3 () Int)
(declare-fun lam8n4 () Int)
(declare-fun lam8n5 () Int)
(declare-fun lam8n6 () Int)
(declare-fun lam8n7 () Int)
(declare-fun lam8n8 () Int)
(declare-fun lam8n9 () Int)
(declare-fun lam8n10 () Int)
(declare-fun lam8n11 () Int)
(declare-fun lam8n12 () Int)
(declare-fun lam8n13 () Int)
(declare-fun lam8n14 () Int)
(declare-fun lam8n15 () Int)
(assert ( and ( <= ( - 1 ) Nl5arg11 ) ( <= Nl5arg11 1 ) ( <= ( - 1 ) Nl5arg21 ) ( <= Nl5arg21 1 ) ( <= ( - 1 ) Nl5arg31 ) ( <= Nl5arg31 1 ) ( <= ( - 1 ) Nl5arg41 ) ( <= Nl5arg41 1 ) ))
(assert ( or ( and ( >= lam0n0 0 ) ( >= lam0n1 0 ) ( >= lam0n2 0 ) ( >= lam0n3 0 ) ( >= lam0n4 0 ) ( >= lam0n5 0 ) ( >= lam0n6 0 ) ( >= lam0n7 0 ) ( >= lam0n8 0 ) ( >= lam0n9 0 ) ( >= lam0n10 0 ) ( >= lam0n11 0 ) ( >= lam0n12 0 ) ( >= lam0n13 0 ) ( >= lam0n14 0 ) ( >= lam0n15 0 ) ( > ( + ( * 1 lam0n0 ) ( * 1 lam0n1 ) ( * 1 lam0n2 ) ( * 1 lam0n3 ) ( * 2 lam0n8 ) ( * 2 lam0n9 ) ( * ( - 2 ) lam0n10 ) ( * ( - 2 ) lam0n11 ) ( * 3 lam0n12 ) ( * 3 lam0n13 ) ( * 3 lam0n14 ) ( * Nl5CT1 lam0n15 ) ( - 1 ) ) 0 ) ( = ( + ( * ( - 1 ) lam0n0 ) ( * ( - 1 ) lam0n4 ) ( * Nl5arg11 lam0n15 ) ) 0 ) ( = ( + ( * ( - 1 ) lam0n8 ) ( * Nl5arg21 lam0n15 ) ) 0 ) ( = ( + ( * ( - 1 ) lam0n5 ) ( * ( - 1 ) lam0n6 ) ( * ( - 1 ) lam0n9 ) ( * ( - 1 ) lam0n12 ) ( * Nl5arg31 lam0n15 ) ) 0 ) ( = ( + ( * ( - 1 ) lam0n1 ) ( * ( - 1 ) lam0n7 ) ( * ( - 1 ) lam0n10 ) ( * ( - 1 ) lam0n11 ) ( * Nl5arg41 lam0n15 ) ) 0 ) ( = ( + ( * ( - 1 ) lam0n2 ) ( * 1 lam0n4 ) ) 0 ) ( = ( + ( * 1 lam0n5 ) ( * 1 lam0n10 ) ( * ( - 1 ) lam0n13 ) ) 0 ) ( = ( + ( * 1 lam0n6 ) ( * 1 lam0n11 ) ( * ( - 1 ) lam0n14 ) ) 0 ) ( = ( + ( * ( - 1 ) lam0n3 ) ( * 1 lam0n7 ) ( * 1 lam0n9 ) ) 0 ) ) ( and ( >= lam1n0 0 ) ( >= lam1n1 0 ) ( >= lam1n2 0 ) ( >= lam1n3 0 ) ( >= lam1n4 0 ) ( >= lam1n5 0 ) ( >= lam1n6 0 ) ( >= lam1n7 0 ) ( >= lam1n8 0 ) ( >= lam1n9 0 ) ( >= lam1n10 0 ) ( >= lam1n11 0 ) ( >= lam1n12 0 ) ( >= lam1n13 0 ) ( >= lam1n14 0 ) ( >= lam1n15 0 ) ( > ( + ( * 1 lam1n0 ) ( * 1 lam1n1 ) ( * 1 lam1n2 ) ( * 1 lam1n3 ) ( * 2 lam1n8 ) ( * 2 lam1n9 ) ( * ( - 2 ) lam1n10 ) ( * ( - 2 ) lam1n11 ) ( * 3 lam1n12 ) ( * 3 lam1n13 ) ( * 3 lam1n14 ) ( * Nl5CT1 lam1n15 ) ( - 1 ( + ( + ( + ( + Nl5CT1 ( * Nl5arg11 0 ) ) ( * Nl5arg21 0 ) ) ( * Nl5arg31 0 ) ) ( * Nl5arg41 0 ) ) ) ) 0 ) ( = ( + ( * ( - 1 ) lam1n0 ) ( * ( - 1 ) lam1n4 ) ( * Nl5arg11 lam1n15 ) ) 0 ) ( = ( + ( * ( - 1 ) lam1n8 ) ( * Nl5arg21 lam1n15 ) ) 0 ) ( = ( + ( * ( - 1 ) lam1n5 ) ( * ( - 1 ) lam1n6 ) ( * ( - 1 ) lam1n9 ) ( * ( - 1 ) lam1n12 ) ( * Nl5arg31 lam1n15 ) ) 0 ) ( = ( + ( * ( - 1 ) lam1n1 ) ( * ( - 1 ) lam1n7 ) ( * ( - 1 ) lam1n10 ) ( * ( - 1 ) lam1n11 ) ( * Nl5arg41 lam1n15 ) ) 0 ) ( = ( + ( * ( - 1 ) lam1n2 ) ( * 1 lam1n4 ) ( - ( + 0 ( * Nl5arg11 1 ) ) ) ) 0 ) ( = ( + ( * 1 lam1n5 ) ( * 1 lam1n10 ) ( * ( - 1 ) lam1n13 ) ( - ( + 0 ( * Nl5arg21 1 ) ) ) ) 0 ) ( = ( + ( * 1 lam1n6 ) ( * 1 lam1n11 ) ( * ( - 1 ) lam1n14 ) ( - ( + 0 ( * Nl5arg31 1 ) ) ) ) 0 ) ( = ( + ( * ( - 1 ) lam1n3 ) ( * 1 lam1n7 ) ( * 1 lam1n9 ) ( - ( + 0 ( * Nl5arg41 1 ) ) ) ) 0 ) ) ))
(assert ( or ( and ( >= lam2n0 0 ) ( >= lam2n1 0 ) ( >= lam2n2 0 ) ( >= lam2n3 0 ) ( >= lam2n4 0 ) ( >= lam2n5 0 ) ( >= lam2n6 0 ) ( >= lam2n7 0 ) ( >= lam2n8 0 ) ( >= lam2n9 0 ) ( >= lam2n10 0 ) ( >= lam2n11 0 ) ( >= lam2n12 0 ) ( >= lam2n13 0 ) ( >= lam2n14 0 ) ( > ( + ( * 1 lam2n0 ) ( * 1 lam2n1 ) ( * 1 lam2n2 ) ( * 1 lam2n3 ) ( * 2 lam2n6 ) ( * 2 lam2n7 ) ( * 2 lam2n8 ) ( * ( - 2 ) lam2n9 ) ( * 3 lam2n10 ) ( * 3 lam2n11 ) ( * 3 lam2n12 ) ( * 3 lam2n13 ) ( * Nl5CT1 lam2n14 ) ( - 1 ) ) 0 ) ( = ( + ( * ( - 1 ) lam2n6 ) ( * ( - 1 ) lam2n10 ) ( * Nl5arg11 lam2n14 ) ) 0 ) ( = ( + ( * ( - 1 ) lam2n7 ) ( * ( - 1 ) lam2n11 ) ( * Nl5arg21 lam2n14 ) ) 0 ) ( = ( + ( * ( - 1 ) lam2n4 ) ( * ( - 1 ) lam2n8 ) ( * ( - 1 ) lam2n12 ) ( * Nl5arg31 lam2n14 ) ) 0 ) ( = ( + ( * ( - 1 ) lam2n0 ) ( * ( - 1 ) lam2n5 ) ( * ( - 1 ) lam2n9 ) ( * Nl5arg41 lam2n14 ) ) 0 ) ( = ( + ( * ( - 1 ) lam2n1 ) ( * 1 lam2n6 ) ) 0 ) ( = ( + ( * ( - 1 ) lam2n2 ) ( * 1 lam2n7 ) ) 0 ) ( = ( + ( * 1 lam2n4 ) ( * 1 lam2n9 ) ( * ( - 1 ) lam2n13 ) ) 0 ) ( = ( + ( * ( - 1 ) lam2n3 ) ( * 1 lam2n5 ) ( * 1 lam2n8 ) ) 0 ) ) ( and ( >= lam3n0 0 ) ( >= lam3n1 0 ) ( >= lam3n2 0 ) ( >= lam3n3 0 ) ( >= lam3n4 0 ) ( >= lam3n5 0 ) ( >= lam3n6 0 ) ( >= lam3n7 0 ) ( >= lam3n8 0 ) ( >= lam3n9 0 ) ( >= lam3n10 0 ) ( >= lam3n11 0 ) ( >= lam3n12 0 ) ( >= lam3n13 0 ) ( >= lam3n14 0 ) ( > ( + ( * 1 lam3n0 ) ( * 1 lam3n1 ) ( * 1 lam3n2 ) ( * 1 lam3n3 ) ( * 2 lam3n6 ) ( * 2 lam3n7 ) ( * 2 lam3n8 ) ( * ( - 2 ) lam3n9 ) ( * 3 lam3n10 ) ( * 3 lam3n11 ) ( * 3 lam3n12 ) ( * 3 lam3n13 ) ( * Nl5CT1 lam3n14 ) ( - 1 ( + ( + ( + ( + Nl5CT1 ( * Nl5arg11 0 ) ) ( * Nl5arg21 0 ) ) ( * Nl5arg31 0 ) ) ( * Nl5arg41 0 ) ) ) ) 0 ) ( = ( + ( * ( - 1 ) lam3n6 ) ( * ( - 1 ) lam3n10 ) ( * Nl5arg11 lam3n14 ) ) 0 ) ( = ( + ( * ( - 1 ) lam3n7 ) ( * ( - 1 ) lam3n11 ) ( * Nl5arg21 lam3n14 ) ) 0 ) ( = ( + ( * ( - 1 ) lam3n4 ) ( * ( - 1 ) lam3n8 ) ( * ( - 1 ) lam3n12 ) ( * Nl5arg31 lam3n14 ) ) 0 ) ( = ( + ( * ( - 1 ) lam3n0 ) ( * ( - 1 ) lam3n5 ) ( * ( - 1 ) lam3n9 ) ( * Nl5arg41 lam3n14 ) ) 0 ) ( = ( + ( * ( - 1 ) lam3n1 ) ( * 1 lam3n6 ) ( - ( + 0 ( * Nl5arg11 1 ) ) ) ) 0 ) ( = ( + ( * ( - 1 ) lam3n2 ) ( * 1 lam3n7 ) ( - ( + 0 ( * Nl5arg21 1 ) ) ) ) 0 ) ( = ( + ( * 1 lam3n4 ) ( * 1 lam3n9 ) ( * ( - 1 ) lam3n13 ) ( - ( + 0 ( * Nl5arg31 1 ) ) ) ) 0 ) ( = ( + ( * ( - 1 ) lam3n3 ) ( * 1 lam3n5 ) ( * 1 lam3n8 ) ( - ( + 0 ( * Nl5arg41 1 ) ) ) ) 0 ) ) ))
(assert ( or ( and ( <= ( + 1 ( * ( - 1 ) undef2 ) ) 0 ) ( <= ( + 1 ( * ( - 1 ) undef12 ) ) 0 ) ( <= ( + 1 ( * ( - 1 ) undef13 ) ) 0 ) ( <= ( + 1 ( * ( - 1 ) undef14 ) undef41 ) 0 ) ( <= ( + 1 ( * ( - 1 ) undef38 ) ) 0 ) ( not ( <= undef41 0 ) ) ( <= ( + 1 ( * ( - 1 ) undef53 ) ) 0 ) ( <= ( + ( - 1 ) ( * ( - 1 ) undef1 ) undef14 ) 0 ) ( <= ( + ( - 1 ) ( * ( - 1 ) undef2 ) undef14 ) 0 ) ( <= ( + ( * ( - 1 ) undef1 ) undef12 ) 0 ) ( <= ( + ( * ( - 1 ) undef1 ) undef13 ) 0 ) ( <= ( + undef2 ( * ( - 1 ) undef53 ) ) 0 ) ( <= ( + ( * ( - 1 ) undef2 ) undef12 ) 0 ) ( <= ( * ( - 1 ) undef6 ) 0 ) ( <= ( + ( * ( - 1 ) undef13 ) undef38 ) 0 ) ( <= ( + ( * ( - 1 ) undef14 ) undef39 ) 0 ) ( <= ( + ( * ( - 1 ) undef14 ) undef40 ) 0 ) ( <= ( + 2 ( * ( - 1 ) undef1 ) undef16 ) 0 ) ( <= ( + 2 ( * ( - 1 ) undef13 ) undef16 ) 0 ) ( <= ( + 2 ( * ( - 1 ) undef14 ) ) 0 ) ( not ( <= ( + ( - 1 ) undef39 ) 0 ) ) ( <= ( + 2 ( * ( - 1 ) undef54 ) ) 0 ) ( <= ( + 3 ( * ( - 1 ) undef1 ) ) 0 ) ( not ( <= ( + ( - 2 ) undef40 ) 0 ) ) ( <= ( + ( + ( + ( + ( + Nl5CT1 ( * Nl5arg11 0 ) ) ( * Nl5arg21 0 ) ) ( * Nl5arg31 0 ) ) ( * Nl5arg41 0 ) ) ( * ( + 0 ( * Nl5arg11 1 ) ) undef38 ) ( * ( + 0 ( * Nl5arg21 1 ) ) undef39 ) ( * ( + 0 ( * Nl5arg31 1 ) ) undef40 ) ( * ( + 0 ( * Nl5arg41 1 ) ) undef41 ) ) 0 ) ) ( and ( <= ( + 1 ( * ( - 1 ) undef2 ) ) 0 ) ( <= ( + 1 ( * ( - 1 ) undef17 ) ) 0 ) ( <= ( + 1 ( * ( - 1 ) undef18 ) ) 0 ) ( <= ( + 1 ( * ( - 1 ) undef19 ) undef41 ) 0 ) ( <= ( + 1 ( * ( - 1 ) undef38 ) ) 0 ) ( not ( <= undef41 0 ) ) ( <= ( + 1 ( * ( - 1 ) undef53 ) ) 0 ) ( <= ( + ( * ( - 1 ) undef1 ) undef17 ) 0 ) ( <= ( + ( * ( - 1 ) undef1 ) undef18 ) 0 ) ( <= ( + undef2 ( * ( - 1 ) undef53 ) ) 0 ) ( <= ( + ( * ( - 1 ) undef2 ) undef17 ) 0 ) ( <= ( * ( - 1 ) undef6 ) 0 ) ( <= ( + ( * ( - 1 ) undef18 ) undef38 ) 0 ) ( <= ( + ( * ( - 1 ) undef19 ) undef39 ) 0 ) ( <= ( + ( * ( - 1 ) undef19 ) undef40 ) 0 ) ( <= ( * ( - 1 ) undef22 ) 0 ) ( <= ( + 2 ( * ( - 1 ) undef1 ) undef21 ) 0 ) ( <= ( + 2 ( * ( - 1 ) undef18 ) undef21 ) 0 ) ( not ( <= ( + ( - 1 ) undef39 ) 0 ) ) ( <= ( + 2 ( * ( - 1 ) undef54 ) ) 0 ) ( <= ( + 3 ( * ( - 1 ) undef1 ) ) 0 ) ( <= ( + 3 ( * ( - 1 ) undef19 ) ) 0 ) ( not ( <= ( + ( - 2 ) undef40 ) 0 ) ) ( <= ( + ( + ( + ( + ( + Nl5CT1 ( * Nl5arg11 0 ) ) ( * Nl5arg21 0 ) ) ( * Nl5arg31 0 ) ) ( * Nl5arg41 0 ) ) ( * ( + 0 ( * Nl5arg11 1 ) ) undef38 ) ( * ( + 0 ( * Nl5arg21 1 ) ) undef39 ) ( * ( + 0 ( * Nl5arg31 1 ) ) undef40 ) ( * ( + 0 ( * Nl5arg41 1 ) ) undef41 ) ) 0 ) ) ( and ( <= ( + 1 ( * ( - 1 ) undef8 ) ) 0 ) ( <= ( + 1 ( * ( - 1 ) undef12 ) ) 0 ) ( <= ( + 1 ( * ( - 1 ) undef13 ) ) 0 ) ( <= ( + 1 ( * ( - 1 ) undef14 ) undef41 ) 0 ) ( <= ( + 1 ( * ( - 1 ) undef38 ) ) 0 ) ( not ( <= undef41 0 ) ) ( <= ( + 1 ( * ( - 1 ) undef53 ) ) 0 ) ( <= ( + ( - 1 ) undef7 ( * ( - 1 ) undef53 ) ) 0 ) ( <= ( + ( - 1 ) ( * ( - 1 ) undef7 ) undef14 ) 0 ) ( <= ( + ( - 1 ) ( * ( - 1 ) undef8 ) undef14 ) 0 ) ( <= ( + ( * ( - 1 ) undef7 ) undef12 ) 0 ) ( <= ( + ( * ( - 1 ) undef7 ) undef13 ) 0 ) ( <= ( + undef8 ( * ( - 1 ) undef53 ) ) 0 ) ( <= ( + ( * ( - 1 ) undef8 ) undef12 ) 0 ) ( <= ( + ( * ( - 1 ) undef13 ) undef38 ) 0 ) ( <= ( + ( * ( - 1 ) undef14 ) undef39 ) 0 ) ( <= ( + ( * ( - 1 ) undef14 ) undef40 ) 0 ) ( <= ( + 2 ( * ( - 1 ) undef7 ) ) 0 ) ( <= ( + 2 ( * ( - 1 ) undef7 ) undef16 ) 0 ) ( <= ( + 2 ( * ( - 1 ) undef13 ) undef16 ) 0 ) ( <= ( + 2 ( * ( - 1 ) undef14 ) ) 0 ) ( not ( <= ( + ( - 1 ) undef39 ) 0 ) ) ( <= ( + 2 ( * ( - 1 ) undef54 ) ) 0 ) ( not ( <= ( + ( - 2 ) undef40 ) 0 ) ) ( <= ( + ( + ( + ( + ( + Nl5CT1 ( * Nl5arg11 0 ) ) ( * Nl5arg21 0 ) ) ( * Nl5arg31 0 ) ) ( * Nl5arg41 0 ) ) ( * ( + 0 ( * Nl5arg11 1 ) ) undef38 ) ( * ( + 0 ( * Nl5arg21 1 ) ) undef39 ) ( * ( + 0 ( * Nl5arg31 1 ) ) undef40 ) ( * ( + 0 ( * Nl5arg41 1 ) ) undef41 ) ) 0 ) ) ( and ( <= ( + 1 ( * ( - 1 ) undef8 ) ) 0 ) ( <= ( + 1 ( * ( - 1 ) undef17 ) ) 0 ) ( <= ( + 1 ( * ( - 1 ) undef18 ) ) 0 ) ( <= ( + 1 ( * ( - 1 ) undef19 ) undef41 ) 0 ) ( <= ( + 1 ( * ( - 1 ) undef38 ) ) 0 ) ( not ( <= undef41 0 ) ) ( <= ( + 1 ( * ( - 1 ) undef53 ) ) 0 ) ( <= ( + ( - 1 ) undef7 ( * ( - 1 ) undef53 ) ) 0 ) ( <= ( + ( * ( - 1 ) undef7 ) undef17 ) 0 ) ( <= ( + ( * ( - 1 ) undef7 ) undef18 ) 0 ) ( <= ( + undef8 ( * ( - 1 ) undef53 ) ) 0 ) ( <= ( + ( * ( - 1 ) undef8 ) undef17 ) 0 ) ( <= ( + ( * ( - 1 ) undef18 ) undef38 ) 0 ) ( <= ( + ( * ( - 1 ) undef19 ) undef39 ) 0 ) ( <= ( + ( * ( - 1 ) undef19 ) undef40 ) 0 ) ( <= ( * ( - 1 ) undef22 ) 0 ) ( <= ( + 2 ( * ( - 1 ) undef7 ) ) 0 ) ( <= ( + 2 ( * ( - 1 ) undef7 ) undef21 ) 0 ) ( <= ( + 2 ( * ( - 1 ) undef18 ) undef21 ) 0 ) ( not ( <= ( + ( - 1 ) undef39 ) 0 ) ) ( <= ( + 2 ( * ( - 1 ) undef54 ) ) 0 ) ( <= ( + 3 ( * ( - 1 ) undef19 ) ) 0 ) ( not ( <= ( + ( - 2 ) undef40 ) 0 ) ) ( <= ( + ( + ( + ( + ( + Nl5CT1 ( * Nl5arg11 0 ) ) ( * Nl5arg21 0 ) ) ( * Nl5arg31 0 ) ) ( * Nl5arg41 0 ) ) ( * ( + 0 ( * Nl5arg11 1 ) ) undef38 ) ( * ( + 0 ( * Nl5arg21 1 ) ) undef39 ) ( * ( + 0 ( * Nl5arg31 1 ) ) undef40 ) ( * ( + 0 ( * Nl5arg41 1 ) ) undef41 ) ) 0 ) ) ))
(assert ( or ( and ( and ( >= lam11n0 0 ) ( >= lam11n1 0 ) ( >= lam11n2 0 ) ( >= lam11n3 0 ) ( >= lam11n4 0 ) ( >= lam11n5 0 ) ( >= lam11n6 0 ) ( >= lam11n7 0 ) ( >= lam11n8 0 ) ( >= lam11n9 0 ) ( >= lam11n10 0 ) ( >= lam11n11 0 ) ( >= lam11n12 0 ) ( >= lam11n13 0 ) ( >= lam11n14 0 ) ( >= lam11n15 0 ) ( > ( + ( * 1 lam11n0 ) ( * 1 lam11n1 ) ( * 1 lam11n2 ) ( * 1 lam11n3 ) ( * 2 lam11n8 ) ( * 2 lam11n9 ) ( * ( - 2 ) lam11n10 ) ( * ( - 2 ) lam11n11 ) ( * 3 lam11n12 ) ( * 3 lam11n13 ) ( * 3 lam11n14 ) ( * Nl5CT1 lam11n15 ) ( - 1 ( - ( + ( + ( + ( + RFN1_CT ( * RFN1_arg1 0 ) ) ( * RFN1_arg2 0 ) ) ( * RFN1_arg3 0 ) ) ( * RFN1_arg4 0 ) ) RFN1_CT ) ) ) 0 ) ( = ( + ( * ( - 1 ) lam11n0 ) ( * ( - 1 ) lam11n4 ) ( * Nl5arg11 lam11n15 ) ( - ( - RFN1_arg1 ) ) ) 0 ) ( = ( + ( * ( - 1 ) lam11n8 ) ( * Nl5arg21 lam11n15 ) ( - ( - RFN1_arg2 ) ) ) 0 ) ( = ( + ( * ( - 1 ) lam11n5 ) ( * ( - 1 ) lam11n6 ) ( * ( - 1 ) lam11n9 ) ( * ( - 1 ) lam11n12 ) ( * Nl5arg31 lam11n15 ) ( - ( - RFN1_arg3 ) ) ) 0 ) ( = ( + ( * ( - 1 ) lam11n1 ) ( * ( - 1 ) lam11n7 ) ( * ( - 1 ) lam11n10 ) ( * ( - 1 ) lam11n11 ) ( * Nl5arg41 lam11n15 ) ( - ( - RFN1_arg4 ) ) ) 0 ) ( = ( + ( * ( - 1 ) lam11n2 ) ( * 1 lam11n4 ) ( - ( + 0 ( * RFN1_arg1 1 ) ) ) ) 0 ) ( = ( + ( * 1 lam11n5 ) ( * 1 lam11n10 ) ( * ( - 1 ) lam11n13 ) ( - ( + 0 ( * RFN1_arg2 1 ) ) ) ) 0 ) ( = ( + ( * 1 lam11n6 ) ( * 1 lam11n11 ) ( * ( - 1 ) lam11n14 ) ( - ( + 0 ( * RFN1_arg3 1 ) ) ) ) 0 ) ( = ( + ( * ( - 1 ) lam11n3 ) ( * 1 lam11n7 ) ( * 1 lam11n9 ) ( - ( + 0 ( * RFN1_arg4 1 ) ) ) ) 0 ) ) ( and ( and ( >= lam9n0 0 ) ( >= lam9n1 0 ) ( >= lam9n2 0 ) ( >= lam9n3 0 ) ( >= lam9n4 0 ) ( >= lam9n5 0 ) ( >= lam9n6 0 ) ( >= lam9n7 0 ) ( >= lam9n8 0 ) ( >= lam9n9 0 ) ( >= lam9n10 0 ) ( >= lam9n11 0 ) ( >= lam9n12 0 ) ( >= lam9n13 0 ) ( >= lam9n14 0 ) ( >= lam9n15 0 ) ( > ( + ( * 1 lam9n0 ) ( * 1 lam9n1 ) ( * 1 lam9n2 ) ( * 1 lam9n3 ) ( * 2 lam9n8 ) ( * 2 lam9n9 ) ( * ( - 2 ) lam9n10 ) ( * ( - 2 ) lam9n11 ) ( * 3 lam9n12 ) ( * 3 lam9n13 ) ( * 3 lam9n14 ) ( * Nl5CT1 lam9n15 ) ( - 1 ( - RFN1_CT ) ) ) 0 ) ( = ( + ( * ( - 1 ) lam9n0 ) ( * ( - 1 ) lam9n4 ) ( * Nl5arg11 lam9n15 ) ( - ( - RFN1_arg1 ) ) ) 0 ) ( = ( + ( * ( - 1 ) lam9n8 ) ( * Nl5arg21 lam9n15 ) ( - ( - RFN1_arg2 ) ) ) 0 ) ( = ( + ( * ( - 1 ) lam9n5 ) ( * ( - 1 ) lam9n6 ) ( * ( - 1 ) lam9n9 ) ( * ( - 1 ) lam9n12 ) ( * Nl5arg31 lam9n15 ) ( - ( - RFN1_arg3 ) ) ) 0 ) ( = ( + ( * ( - 1 ) lam9n1 ) ( * ( - 1 ) lam9n7 ) ( * ( - 1 ) lam9n10 ) ( * ( - 1 ) lam9n11 ) ( * Nl5arg41 lam9n15 ) ( - ( - RFN1_arg4 ) ) ) 0 ) ( = ( + ( * ( - 1 ) lam9n2 ) ( * 1 lam9n4 ) ) 0 ) ( = ( + ( * 1 lam9n5 ) ( * 1 lam9n10 ) ( * ( - 1 ) lam9n13 ) ) 0 ) ( = ( + ( * 1 lam9n6 ) ( * 1 lam9n11 ) ( * ( - 1 ) lam9n14 ) ) 0 ) ( = ( + ( * ( - 1 ) lam9n3 ) ( * 1 lam9n7 ) ( * 1 lam9n9 ) ) 0 ) ) ( and ( >= lam10n0 0 ) ( >= lam10n1 0 ) ( >= lam10n2 0 ) ( >= lam10n3 0 ) ( >= lam10n4 0 ) ( >= lam10n5 0 ) ( >= lam10n6 0 ) ( >= lam10n7 0 ) ( >= lam10n8 0 ) ( >= lam10n9 0 ) ( >= lam10n10 0 ) ( >= lam10n11 0 ) ( >= lam10n12 0 ) ( >= lam10n13 0 ) ( >= lam10n14 0 ) ( >= lam10n15 0 ) ( > ( + ( * 1 lam10n0 ) ( * 1 lam10n1 ) ( * 1 lam10n2 ) ( * 1 lam10n3 ) ( * 2 lam10n8 ) ( * 2 lam10n9 ) ( * ( - 2 ) lam10n10 ) ( * ( - 2 ) lam10n11 ) ( * 3 lam10n12 ) ( * 3 lam10n13 ) ( * 3 lam10n14 ) ( * Nl5CT1 lam10n15 ) ( - 1 ( + ( - ( + ( + ( + ( + RFN1_CT ( * RFN1_arg1 0 ) ) ( * RFN1_arg2 0 ) ) ( * RFN1_arg3 0 ) ) ( * RFN1_arg4 0 ) ) RFN1_CT ) 1 ) ) ) 0 ) ( = ( + ( * ( - 1 ) lam10n0 ) ( * ( - 1 ) lam10n4 ) ( * Nl5arg11 lam10n15 ) ( - ( - RFN1_arg1 ) ) ) 0 ) ( = ( + ( * ( - 1 ) lam10n8 ) ( * Nl5arg21 lam10n15 ) ( - ( - RFN1_arg2 ) ) ) 0 ) ( = ( + ( * ( - 1 ) lam10n5 ) ( * ( - 1 ) lam10n6 ) ( * ( - 1 ) lam10n9 ) ( * ( - 1 ) lam10n12 ) ( * Nl5arg31 lam10n15 ) ( - ( - RFN1_arg3 ) ) ) 0 ) ( = ( + ( * ( - 1 ) lam10n1 ) ( * ( - 1 ) lam10n7 ) ( * ( - 1 ) lam10n10 ) ( * ( - 1 ) lam10n11 ) ( * Nl5arg41 lam10n15 ) ( - ( - RFN1_arg4 ) ) ) 0 ) ( = ( + ( * ( - 1 ) lam10n2 ) ( * 1 lam10n4 ) ( - ( + 0 ( * RFN1_arg1 1 ) ) ) ) 0 ) ( = ( + ( * 1 lam10n5 ) ( * 1 lam10n10 ) ( * ( - 1 ) lam10n13 ) ( - ( + 0 ( * RFN1_arg2 1 ) ) ) ) 0 ) ( = ( + ( * 1 lam10n6 ) ( * 1 lam10n11 ) ( * ( - 1 ) lam10n14 ) ( - ( + 0 ( * RFN1_arg3 1 ) ) ) ) 0 ) ( = ( + ( * ( - 1 ) lam10n3 ) ( * 1 lam10n7 ) ( * 1 lam10n9 ) ( - ( + 0 ( * RFN1_arg4 1 ) ) ) ) 0 ) ) ) ) ( and ( >= lam8n0 0 ) ( >= lam8n1 0 ) ( >= lam8n2 0 ) ( >= lam8n3 0 ) ( >= lam8n4 0 ) ( >= lam8n5 0 ) ( >= lam8n6 0 ) ( >= lam8n7 0 ) ( >= lam8n8 0 ) ( >= lam8n9 0 ) ( >= lam8n10 0 ) ( >= lam8n11 0 ) ( >= lam8n12 0 ) ( >= lam8n13 0 ) ( >= lam8n14 0 ) ( >= lam8n15 0 ) ( > ( + ( * 1 lam8n0 ) ( * 1 lam8n1 ) ( * 1 lam8n2 ) ( * 1 lam8n3 ) ( * 2 lam8n8 ) ( * 2 lam8n9 ) ( * ( - 2 ) lam8n10 ) ( * ( - 2 ) lam8n11 ) ( * 3 lam8n12 ) ( * 3 lam8n13 ) ( * 3 lam8n14 ) ( * Nl5CT1 lam8n15 ) ( - 1 ) ) 0 ) ( = ( + ( * ( - 1 ) lam8n0 ) ( * ( - 1 ) lam8n4 ) ( * Nl5arg11 lam8n15 ) ) 0 ) ( = ( + ( * ( - 1 ) lam8n8 ) ( * Nl5arg21 lam8n15 ) ) 0 ) ( = ( + ( * ( - 1 ) lam8n5 ) ( * ( - 1 ) lam8n6 ) ( * ( - 1 ) lam8n9 ) ( * ( - 1 ) lam8n12 ) ( * Nl5arg31 lam8n15 ) ) 0 ) ( = ( + ( * ( - 1 ) lam8n1 ) ( * ( - 1 ) lam8n7 ) ( * ( - 1 ) lam8n10 ) ( * ( - 1 ) lam8n11 ) ( * Nl5arg41 lam8n15 ) ) 0 ) ( = ( + ( * ( - 1 ) lam8n2 ) ( * 1 lam8n4 ) ) 0 ) ( = ( + ( * 1 lam8n5 ) ( * 1 lam8n10 ) ( * ( - 1 ) lam8n13 ) ) 0 ) ( = ( + ( * 1 lam8n6 ) ( * 1 lam8n11 ) ( * ( - 1 ) lam8n14 ) ) 0 ) ( = ( + ( * ( - 1 ) lam8n3 ) ( * 1 lam8n7 ) ( * 1 lam8n9 ) ) 0 ) ) ))
(check-sat)
(exit)
